p edge 34 170
e 1 13
e 1 22
e 1 22
e 1 28
e 1 33
e 2 10
e 2 20
e 2 23
e 2 25
e 2 32
e 3 10
e 3 16
e 3 20
e 3 27
e 3 34
e 4 18
e 4 18
e 4 32
e 4 33
e 4 33
e 5 2
e 5 4
e 5 25
e 5 32
e 5 33
e 6 12
e 6 13
e 6 15
e 6 16
e 6 33
e 7 3
e 7 11
e 7 32
e 7 33
e 7 34
e 8 2
e 8 5
e 8 16
e 8 28
e 8 31
e 9 2
e 9 5
e 9 11
e 9 12
e 9 21
e 10 5
e 10 9
e 10 14
e 10 19
e 10 34
e 11 12
e 11 15
e 11 17
e 11 23
e 11 32
e 12 2
e 12 6
e 12 8
e 12 21
e 12 33
e 13 17
e 13 21
e 13 24
e 13 27
e 13 28
e 14 23
e 14 29
e 14 31
e 14 32
e 14 33
e 15 8
e 15 9
e 15 12
e 15 16
e 15 18
e 16 3
e 16 15
e 16 22
e 16 29
e 16 34
e 17 5
e 17 8
e 17 12
e 17 26
e 17 34
e 18 12
e 18 15
e 18 15
e 18 24
e 18 32
e 19 6
e 19 7
e 19 17
e 19 26
e 19 28
e 20 12
e 20 14
e 20 16
e 20 18
e 20 19
e 21 14
e 21 14
e 21 23
e 21 25
e 21 27
e 22 3
e 22 16
e 22 16
e 22 21
e 22 31
e 23 1
e 23 15
e 23 18
e 23 28
e 23 30
e 24 7
e 24 16
e 24 17
e 24 26
e 24 32
e 25 8
e 25 15
e 25 21
e 25 23
e 25 27
e 26 2
e 26 5
e 26 16
e 26 27
e 26 31
e 27 6
e 27 12
e 27 17
e 27 23
e 27 25
e 28 20
e 28 22
e 28 26
e 28 30
e 28 33
e 29 10
e 29 11
e 29 13
e 29 26
e 29 26
e 30 7
e 30 13
e 30 15
e 30 27
e 30 32
e 31 4
e 31 5
e 31 13
e 31 14
e 31 26
e 32 20
e 32 22
e 32 26
e 32 27
e 32 27
e 33 7
e 33 10
e 33 29
e 33 31
e 33 34
e 34 1
e 34 2
e 34 18
e 34 23
e 34 32
